(set-logic ALL)
(declare-const BAV1 Bool)
(declare-const BAV2 Bool)
(declare-const GEN6 String)
(declare-const GEN5 String)
(declare-const GEN4 String)
(declare-const GEN3 String)
(declare-const GEN2 String)
(declare-const GEN1 String)
(declare-fun x () String)
(declare-fun y () String)
(assert (= x (str.replace_all GEN1 GEN2 GEN3)))
(assert (= y (str.replace_all GEN4 GEN5 GEN6)))
(assert (= BAV1 (= x (str.replace_all GEN1 GEN2 GEN3))))
(assert (= BAV2 (= y (str.replace_all GEN4 GEN5 GEN6))))
(check-sat)
(get-model)